Gold cluster (Au/Cl)
1.0
22.000000 0.000000 0.000000
0.000000 22.000000 0.000000
0.000000 0.000000 22.000000
Au Cl
16 4
Cartesian
11.000000 11.000000 11.000000
8.510984 8.510984 11.000000
8.510984 11.000000 8.510984
8.510984 11.000000 13.489016
8.510984 13.489016 11.000000
11.000000 8.510984 8.510984
11.000000 8.510984 13.489016
11.000000 13.489016 8.510984
11.000000 13.489016 13.489016
13.489016 8.510984 11.000000
13.489016 11.000000 8.510984
13.489016 11.000000 13.489016
13.489016 13.489016 11.000000
11.000000 15.978032 11.000000
15.978032 11.000000 11.000000
6.021968 8.510984 8.510984
6.021968 11.000000 11.000000
11.000000 6.021968 11.000000
11.000000 11.000000 6.021968
11.000000 11.000000 15.978032
