H2 O Au
1.0
5.0 0.0 0.0
0.0 5.0 0.0
0.0 0.0 5.0
H O Au
2 1 1
direct
0.0 0.0 0.0
0.5 0.5 0.5
0.7 0.6 0.6
0.2 0.1 0.2